c preprocessed version of dimacs_games120, 73 vertices, 316 edges
p td 73 316
0 1
0 30
0 28
0 29
0 27
0 31
0 6
0 13
0 24
55 0
57 0
2 1
5 1
13 1
38 1
24 1
25 1
37 1
26 1
1 42
1 14
2 3
2 42
2 26
2 37
2 25
2 12
43 2
41 2
57 2
4 3
22 3
3 35
36 3
44 3
45 3
4 5
4 13
4 35
36 4
44 4
45 4
59 4
5 6
5 30
5 28
5 27
5 29
5 31
5 23
5 62
57 5
7 6
27 6
31 6
26 6
30 6
28 6
12 6
51 6
57 6
8 7
7 15
7 65
7 40
7 20
58 7
60 7
8 9
8 24
8 19
8 18
8 65
8 63
10 9
9 15
9 18
9 65
9 17
16 9
58 9
10 11
10 61
10 62
10 63
10 48
10 35
11 12
11 14
47 11
63 11
11 48
11 62
11 61
50 11
32 11
13 12
24 12
23 12
65 12
62 12
39 12
45 12
56 12
13 14
13 33
13 42
13 27
32 13
59 13
56 13
15 14
24 14
23 14
22 14
14 65
55 14
56 14
16 15
33 15
15 40
16 17
16 65
16 33
16 54
16 50
16 39
16 49
16 32
16 51
18 17
33 17
17 29
55 17
18 19
18 33
18 61
20 19
40 19
19 65
20 21
20 64
20 65
20 53
22 21
64 21
65 21
60 21
22 23
57 22
56 22
24 23
55 23
23 40
59 23
56 23
24 25
55 24
56 24
25 26
38 25
25 37
25 42
25 31
43 25
27 26
37 26
26 42
32 26
43 26
41 26
27 28
27 29
27 30
27 31
28 29
30 28
49 28
51 28
44 28
57 28
30 29
31 29
57 29
31 30
57 30
32 31
57 31
32 33
39 32
32 42
50 32
49 32
32 51
34 33
34 35
34 41
34 46
34 44
34 43
45 34
36 35
44 35
45 35
36 37
36 53
36 61
44 36
43 36
38 37
37 48
47 37
43 37
39 38
38 42
49 38
43 38
46 38
39 40
50 39
39 49
39 51
41 40
56 40
41 42
44 41
43 41
41 46
45 41
43 42
44 43
43 45
43 46
44 45
44 46
46 45
46 47
47 48
47 61
47 63
47 62
49 48
48 61
62 48
63 48
50 49
49 51
50 51
56 50
52 51
52 53
52 54
57 52
52 58
52 60
52 59
56 52
53 54
55 54
59 54
56 55
56 57
56 59
56 58
60 56
57 58
57 60
57 59
59 58
58 60
59 60
62 61
63 61
63 62
64 65
66 72
66 69
66 68
66 71
66 70
66 30
66 64
66 67
67 72
67 69
67 68
67 71
67 70
67 21
67 64
68 72
68 69
68 71
68 21
68 70
68 59
69 72
69 14
69 71
69 21
69 53
69 70
70 72
70 71
70 17
70 64
70 58
71 72
71 21
71 64
71 49
72 4
72 23
72 24
72 55
72 59
